c description: Random 3-CNF over 15 variables and 80 clauses
c generator: CNFgen (0.9.0)
c copyright: (C) 2012-2020 Massimo Lauria <massimo.lauria@uniroma1.it>
c url: https://massimolauria.net/cnfgen
c
p cnf 15 80
1 5 -6 0
-6 -11 14 0
-7 9 -13 0
-7 -9 10 0
-5 7 14 0
3 4 -12 0
2 -6 14 0
-2 -3 -6 0
2 3 11 0
-9 -11 -12 0
7 8 -11 0
-9 12 15 0
11 13 15 0
3 6 9 0
2 -12 15 0
7 -11 12 0
-2 8 -11 0
-3 7 -11 0
-7 12 13 0
-6 -9 -11 0
-2 5 6 0
-7 -11 -14 0
-2 13 -14 0
-6 -9 -13 0
5 -6 -11 0
2 -9 15 0
3 -7 -9 0
-5 6 10 0
3 -5 13 0
-2 9 -11 0
2 -7 -8 0
9 -12 -13 0
-7 8 -14 0
9 -11 -12 0
2 6 12 0
-9 -14 15 0
5 9 -15 0
6 -9 -13 0
-2 -13 -15 0
3 7 8 0
-6 9 12 0
-3 12 -15 0
6 8 14 0
-4 -9 11 0
5 -10 -11 0
-7 8 -12 0
4 -11 14 0
-3 6 15 0
-2 -3 6 0
-3 -4 8 0
2 -6 -11 0
4 -12 15 0
1 -4 -9 0
3 10 13 0
2 3 6 0
1 -6 -14 0
-5 7 15 0
-4 -9 14 0
4 -12 14 0
-4 -5 -9 0
-3 7 13 0
-3 -14 -15 0
-1 12 -13 0
2 -14 15 0
-3 -6 9 0
-5 6 -11 0
-3 4 -7 0
4 -11 -15 0
-3 -11 13 0
-1 8 -13 0
4 12 -15 0
-2 3 -11 0
-1 8 -14 0
-5 14 -15 0
-8 10 11 0
1 -4 8 0
10 -11 13 0
4 -6 7 0
5 -12 13 0
-1 -6 -7 0